
(set-option :produce-models true)
(set-option :inline-size-limit 10000)

(declare-const var0 String)

(push 1)
(assert (str.in.re var0 (re.* (re.range "\x01" "\xff"))))
(assert (str.in.re var0 (re.++ (re.++ re.begin-anchor ((_ re.capture 1) (re.union (re.union (re.++ (re.opt (re.union (str.to.re "-") (str.to.re "+"))) (re.++ ((_ re.capture 2) (re.union (re.++ (re.+ (re.range "0" "9")) (re.++ (re.opt (str.to.re ".")) (re.* (re.range "0" "9")))) (re.++ (re.* (re.range "0" "9")) (re.++ (re.opt (str.to.re ".")) (re.+ (re.range "0" "9")))))) (re.++ (re.opt ((_ re.capture 3) (re.++ (re.union (str.to.re "E") (str.to.re "e")) (re.++ (re.opt (re.union (str.to.re "-") (str.to.re "+"))) (re.++ (re.opt (re.range "0" "2")) ((_ re.loop 1 2) (re.range "0" "9"))))))) (re.opt (str.to.re "r"))))) (re.++ (re.opt (re.union (str.to.re "-") (str.to.re "+"))) (re.++ (re.opt ((_ re.capture 4) (re.++ ((_ re.capture 5) (re.union (re.++ (re.+ (re.range "0" "9")) (re.++ (re.opt (str.to.re ".")) (re.* (re.range "0" "9")))) (re.++ (re.* (re.range "0" "9")) (re.++ (re.opt (str.to.re ".")) (re.+ (re.range "0" "9")))))) (re.opt ((_ re.capture 6) (re.++ (re.union (str.to.re "E") (str.to.re "e")) (re.++ (re.opt (re.union (str.to.re "-") (str.to.re "+"))) (re.++ (re.opt (re.range "0" "2")) ((_ re.loop 1 2) (re.range "0" "9")))))))))) (str.to.re "i")))) (re.++ (re.opt (re.union (str.to.re "-") (str.to.re "+"))) (re.++ ((_ re.capture 7) (re.union (re.++ (re.+ (re.range "0" "9")) (re.++ (re.opt (str.to.re ".")) (re.* (re.range "0" "9")))) (re.++ (re.* (re.range "0" "9")) (re.++ (re.opt (str.to.re ".")) (re.+ (re.range "0" "9")))))) (re.++ (re.opt ((_ re.capture 8) (re.++ (re.union (str.to.re "E") (str.to.re "e")) (re.++ (re.opt (re.union (str.to.re "-") (str.to.re "+"))) (re.++ (re.opt (re.range "0" "2")) ((_ re.loop 1 2) (re.range "0" "9"))))))) (re.++ (re.opt (str.to.re "r")) (re.++ (re.union (str.to.re "-") (str.to.re "+")) (re.++ (re.opt ((_ re.capture 9) (re.++ ((_ re.capture 10) (re.union (re.++ (re.+ (re.range "0" "9")) (re.++ (re.opt (str.to.re ".")) (re.* (re.range "0" "9")))) (re.++ (re.* (re.range "0" "9")) (re.++ (re.opt (str.to.re ".")) (re.+ (re.range "0" "9")))))) (re.opt ((_ re.capture 11) (re.++ (re.union (str.to.re "E") (str.to.re "e")) (re.++ (re.opt (re.union (str.to.re "-") (str.to.re "+"))) (re.++ (re.opt (re.range "0" "2")) ((_ re.loop 1 2) (re.range "0" "9")))))))))) (str.to.re "i")))))))))) re.end-anchor)))	; match!==null
(assert (not (str.in.re ((_ str.extract 1) var0 (re.++ (re.++ re.begin-anchor ((_ re.capture 1) (re.union (re.union (re.++ (re.opt (re.union (str.to.re "-") (str.to.re "+"))) (re.++ ((_ re.capture 2) (re.union (re.++ (re.+ (re.range "0" "9")) (re.++ (re.opt (str.to.re ".")) (re.* (re.range "0" "9")))) (re.++ (re.* (re.range "0" "9")) (re.++ (re.opt (str.to.re ".")) (re.+ (re.range "0" "9")))))) (re.++ (re.opt ((_ re.capture 3) (re.++ (re.union (str.to.re "E") (str.to.re "e")) (re.++ (re.opt (re.union (str.to.re "-") (str.to.re "+"))) (re.++ (re.opt (re.range "0" "2")) ((_ re.loop 1 2) (re.range "0" "9"))))))) (re.opt (str.to.re "r"))))) (re.++ (re.opt (re.union (str.to.re "-") (str.to.re "+"))) (re.++ (re.opt ((_ re.capture 4) (re.++ ((_ re.capture 5) (re.union (re.++ (re.+ (re.range "0" "9")) (re.++ (re.opt (str.to.re ".")) (re.* (re.range "0" "9")))) (re.++ (re.* (re.range "0" "9")) (re.++ (re.opt (str.to.re ".")) (re.+ (re.range "0" "9")))))) (re.opt ((_ re.capture 6) (re.++ (re.union (str.to.re "E") (str.to.re "e")) (re.++ (re.opt (re.union (str.to.re "-") (str.to.re "+"))) (re.++ (re.opt (re.range "0" "2")) ((_ re.loop 1 2) (re.range "0" "9")))))))))) (str.to.re "i")))) (re.++ (re.opt (re.union (str.to.re "-") (str.to.re "+"))) (re.++ ((_ re.capture 7) (re.union (re.++ (re.+ (re.range "0" "9")) (re.++ (re.opt (str.to.re ".")) (re.* (re.range "0" "9")))) (re.++ (re.* (re.range "0" "9")) (re.++ (re.opt (str.to.re ".")) (re.+ (re.range "0" "9")))))) (re.++ (re.opt ((_ re.capture 8) (re.++ (re.union (str.to.re "E") (str.to.re "e")) (re.++ (re.opt (re.union (str.to.re "-") (str.to.re "+"))) (re.++ (re.opt (re.range "0" "2")) ((_ re.loop 1 2) (re.range "0" "9"))))))) (re.++ (re.opt (str.to.re "r")) (re.++ (re.union (str.to.re "-") (str.to.re "+")) (re.++ (re.opt ((_ re.capture 9) (re.++ ((_ re.capture 10) (re.union (re.++ (re.+ (re.range "0" "9")) (re.++ (re.opt (str.to.re ".")) (re.* (re.range "0" "9")))) (re.++ (re.* (re.range "0" "9")) (re.++ (re.opt (str.to.re ".")) (re.+ (re.range "0" "9")))))) (re.opt ((_ re.capture 11) (re.++ (re.union (str.to.re "E") (str.to.re "e")) (re.++ (re.opt (re.union (str.to.re "-") (str.to.re "+"))) (re.++ (re.opt (re.range "0" "2")) ((_ re.loop 1 2) (re.range "0" "9")))))))))) (str.to.re "i")))))))))) re.end-anchor)) (str.to.re "\x00"))))
;match[1]!==null
(assert (str.in.re ((_ str.extract 1) var0 (re.++ (re.++ re.begin-anchor ((_ re.capture 1) (re.union (re.union (re.++ (re.opt (re.union (str.to.re "-") (str.to.re "+"))) (re.++ ((_ re.capture 2) (re.union (re.++ (re.+ (re.range "0" "9")) (re.++ (re.opt (str.to.re ".")) (re.* (re.range "0" "9")))) (re.++ (re.* (re.range "0" "9")) (re.++ (re.opt (str.to.re ".")) (re.+ (re.range "0" "9")))))) (re.++ (re.opt ((_ re.capture 3) (re.++ (re.union (str.to.re "E") (str.to.re "e")) (re.++ (re.opt (re.union (str.to.re "-") (str.to.re "+"))) (re.++ (re.opt (re.range "0" "2")) ((_ re.loop 1 2) (re.range "0" "9"))))))) (re.opt (str.to.re "r"))))) (re.++ (re.opt (re.union (str.to.re "-") (str.to.re "+"))) (re.++ (re.opt ((_ re.capture 4) (re.++ ((_ re.capture 5) (re.union (re.++ (re.+ (re.range "0" "9")) (re.++ (re.opt (str.to.re ".")) (re.* (re.range "0" "9")))) (re.++ (re.* (re.range "0" "9")) (re.++ (re.opt (str.to.re ".")) (re.+ (re.range "0" "9")))))) (re.opt ((_ re.capture 6) (re.++ (re.union (str.to.re "E") (str.to.re "e")) (re.++ (re.opt (re.union (str.to.re "-") (str.to.re "+"))) (re.++ (re.opt (re.range "0" "2")) ((_ re.loop 1 2) (re.range "0" "9")))))))))) (str.to.re "i")))) (re.++ (re.opt (re.union (str.to.re "-") (str.to.re "+"))) (re.++ ((_ re.capture 7) (re.union (re.++ (re.+ (re.range "0" "9")) (re.++ (re.opt (str.to.re ".")) (re.* (re.range "0" "9")))) (re.++ (re.* (re.range "0" "9")) (re.++ (re.opt (str.to.re ".")) (re.+ (re.range "0" "9")))))) (re.++ (re.opt ((_ re.capture 8) (re.++ (re.union (str.to.re "E") (str.to.re "e")) (re.++ (re.opt (re.union (str.to.re "-") (str.to.re "+"))) (re.++ (re.opt (re.range "0" "2")) ((_ re.loop 1 2) (re.range "0" "9"))))))) (re.++ (re.opt (str.to.re "r")) (re.++ (re.union (str.to.re "-") (str.to.re "+")) (re.++ (re.opt ((_ re.capture 9) (re.++ ((_ re.capture 10) (re.union (re.++ (re.+ (re.range "0" "9")) (re.++ (re.opt (str.to.re ".")) (re.* (re.range "0" "9")))) (re.++ (re.* (re.range "0" "9")) (re.++ (re.opt (str.to.re ".")) (re.+ (re.range "0" "9")))))) (re.opt ((_ re.capture 11) (re.++ (re.union (str.to.re "E") (str.to.re "e")) (re.++ (re.opt (re.union (str.to.re "-") (str.to.re "+"))) (re.++ (re.opt (re.range "0" "2")) ((_ re.loop 1 2) (re.range "0" "9")))))))))) (str.to.re "i")))))))))) re.end-anchor)) (re.++ re.all(re.+ (re.range "a" "z")) re.all) ))
;/[a-z]+/.test(match[1]) == true
(check-sat)
(get-model)
(pop 1)
(push 1)
(assert (str.in.re var0 (re.* (re.range "\x01" "\xff"))))
(assert (str.in.re var0 (re.++ (re.++ re.begin-anchor ((_ re.capture 1) (re.union (re.union (re.++ (re.opt (re.union (str.to.re "-") (str.to.re "+"))) (re.++ ((_ re.capture 2) (re.union (re.++ (re.+ (re.range "0" "9")) (re.++ (re.opt (str.to.re ".")) (re.* (re.range "0" "9")))) (re.++ (re.* (re.range "0" "9")) (re.++ (re.opt (str.to.re ".")) (re.+ (re.range "0" "9")))))) (re.++ (re.opt ((_ re.capture 3) (re.++ (re.union (str.to.re "E") (str.to.re "e")) (re.++ (re.opt (re.union (str.to.re "-") (str.to.re "+"))) (re.++ (re.opt (re.range "0" "2")) ((_ re.loop 1 2) (re.range "0" "9"))))))) (re.opt (str.to.re "r"))))) (re.++ (re.opt (re.union (str.to.re "-") (str.to.re "+"))) (re.++ (re.opt ((_ re.capture 4) (re.++ ((_ re.capture 5) (re.union (re.++ (re.+ (re.range "0" "9")) (re.++ (re.opt (str.to.re ".")) (re.* (re.range "0" "9")))) (re.++ (re.* (re.range "0" "9")) (re.++ (re.opt (str.to.re ".")) (re.+ (re.range "0" "9")))))) (re.opt ((_ re.capture 6) (re.++ (re.union (str.to.re "E") (str.to.re "e")) (re.++ (re.opt (re.union (str.to.re "-") (str.to.re "+"))) (re.++ (re.opt (re.range "0" "2")) ((_ re.loop 1 2) (re.range "0" "9")))))))))) (str.to.re "i")))) (re.++ (re.opt (re.union (str.to.re "-") (str.to.re "+"))) (re.++ ((_ re.capture 7) (re.union (re.++ (re.+ (re.range "0" "9")) (re.++ (re.opt (str.to.re ".")) (re.* (re.range "0" "9")))) (re.++ (re.* (re.range "0" "9")) (re.++ (re.opt (str.to.re ".")) (re.+ (re.range "0" "9")))))) (re.++ (re.opt ((_ re.capture 8) (re.++ (re.union (str.to.re "E") (str.to.re "e")) (re.++ (re.opt (re.union (str.to.re "-") (str.to.re "+"))) (re.++ (re.opt (re.range "0" "2")) ((_ re.loop 1 2) (re.range "0" "9"))))))) (re.++ (re.opt (str.to.re "r")) (re.++ (re.union (str.to.re "-") (str.to.re "+")) (re.++ (re.opt ((_ re.capture 9) (re.++ ((_ re.capture 10) (re.union (re.++ (re.+ (re.range "0" "9")) (re.++ (re.opt (str.to.re ".")) (re.* (re.range "0" "9")))) (re.++ (re.* (re.range "0" "9")) (re.++ (re.opt (str.to.re ".")) (re.+ (re.range "0" "9")))))) (re.opt ((_ re.capture 11) (re.++ (re.union (str.to.re "E") (str.to.re "e")) (re.++ (re.opt (re.union (str.to.re "-") (str.to.re "+"))) (re.++ (re.opt (re.range "0" "2")) ((_ re.loop 1 2) (re.range "0" "9")))))))))) (str.to.re "i")))))))))) re.end-anchor)))	; match!==null
(assert (not (str.in.re ((_ str.extract 1) var0 (re.++ (re.++ re.begin-anchor ((_ re.capture 1) (re.union (re.union (re.++ (re.opt (re.union (str.to.re "-") (str.to.re "+"))) (re.++ ((_ re.capture 2) (re.union (re.++ (re.+ (re.range "0" "9")) (re.++ (re.opt (str.to.re ".")) (re.* (re.range "0" "9")))) (re.++ (re.* (re.range "0" "9")) (re.++ (re.opt (str.to.re ".")) (re.+ (re.range "0" "9")))))) (re.++ (re.opt ((_ re.capture 3) (re.++ (re.union (str.to.re "E") (str.to.re "e")) (re.++ (re.opt (re.union (str.to.re "-") (str.to.re "+"))) (re.++ (re.opt (re.range "0" "2")) ((_ re.loop 1 2) (re.range "0" "9"))))))) (re.opt (str.to.re "r"))))) (re.++ (re.opt (re.union (str.to.re "-") (str.to.re "+"))) (re.++ (re.opt ((_ re.capture 4) (re.++ ((_ re.capture 5) (re.union (re.++ (re.+ (re.range "0" "9")) (re.++ (re.opt (str.to.re ".")) (re.* (re.range "0" "9")))) (re.++ (re.* (re.range "0" "9")) (re.++ (re.opt (str.to.re ".")) (re.+ (re.range "0" "9")))))) (re.opt ((_ re.capture 6) (re.++ (re.union (str.to.re "E") (str.to.re "e")) (re.++ (re.opt (re.union (str.to.re "-") (str.to.re "+"))) (re.++ (re.opt (re.range "0" "2")) ((_ re.loop 1 2) (re.range "0" "9")))))))))) (str.to.re "i")))) (re.++ (re.opt (re.union (str.to.re "-") (str.to.re "+"))) (re.++ ((_ re.capture 7) (re.union (re.++ (re.+ (re.range "0" "9")) (re.++ (re.opt (str.to.re ".")) (re.* (re.range "0" "9")))) (re.++ (re.* (re.range "0" "9")) (re.++ (re.opt (str.to.re ".")) (re.+ (re.range "0" "9")))))) (re.++ (re.opt ((_ re.capture 8) (re.++ (re.union (str.to.re "E") (str.to.re "e")) (re.++ (re.opt (re.union (str.to.re "-") (str.to.re "+"))) (re.++ (re.opt (re.range "0" "2")) ((_ re.loop 1 2) (re.range "0" "9"))))))) (re.++ (re.opt (str.to.re "r")) (re.++ (re.union (str.to.re "-") (str.to.re "+")) (re.++ (re.opt ((_ re.capture 9) (re.++ ((_ re.capture 10) (re.union (re.++ (re.+ (re.range "0" "9")) (re.++ (re.opt (str.to.re ".")) (re.* (re.range "0" "9")))) (re.++ (re.* (re.range "0" "9")) (re.++ (re.opt (str.to.re ".")) (re.+ (re.range "0" "9")))))) (re.opt ((_ re.capture 11) (re.++ (re.union (str.to.re "E") (str.to.re "e")) (re.++ (re.opt (re.union (str.to.re "-") (str.to.re "+"))) (re.++ (re.opt (re.range "0" "2")) ((_ re.loop 1 2) (re.range "0" "9")))))))))) (str.to.re "i")))))))))) re.end-anchor)) (str.to.re "\x00"))))	
;match[1]!==null
(assert (not (str.in.re ((_ str.extract 1) var0 (re.++ (re.++ re.begin-anchor ((_ re.capture 1) (re.union (re.union (re.++ (re.opt (re.union (str.to.re "-") (str.to.re "+"))) (re.++ ((_ re.capture 2) (re.union (re.++ (re.+ (re.range "0" "9")) (re.++ (re.opt (str.to.re ".")) (re.* (re.range "0" "9")))) (re.++ (re.* (re.range "0" "9")) (re.++ (re.opt (str.to.re ".")) (re.+ (re.range "0" "9")))))) (re.++ (re.opt ((_ re.capture 3) (re.++ (re.union (str.to.re "E") (str.to.re "e")) (re.++ (re.opt (re.union (str.to.re "-") (str.to.re "+"))) (re.++ (re.opt (re.range "0" "2")) ((_ re.loop 1 2) (re.range "0" "9"))))))) (re.opt (str.to.re "r"))))) (re.++ (re.opt (re.union (str.to.re "-") (str.to.re "+"))) (re.++ (re.opt ((_ re.capture 4) (re.++ ((_ re.capture 5) (re.union (re.++ (re.+ (re.range "0" "9")) (re.++ (re.opt (str.to.re ".")) (re.* (re.range "0" "9")))) (re.++ (re.* (re.range "0" "9")) (re.++ (re.opt (str.to.re ".")) (re.+ (re.range "0" "9")))))) (re.opt ((_ re.capture 6) (re.++ (re.union (str.to.re "E") (str.to.re "e")) (re.++ (re.opt (re.union (str.to.re "-") (str.to.re "+"))) (re.++ (re.opt (re.range "0" "2")) ((_ re.loop 1 2) (re.range "0" "9")))))))))) (str.to.re "i")))) (re.++ (re.opt (re.union (str.to.re "-") (str.to.re "+"))) (re.++ ((_ re.capture 7) (re.union (re.++ (re.+ (re.range "0" "9")) (re.++ (re.opt (str.to.re ".")) (re.* (re.range "0" "9")))) (re.++ (re.* (re.range "0" "9")) (re.++ (re.opt (str.to.re ".")) (re.+ (re.range "0" "9")))))) (re.++ (re.opt ((_ re.capture 8) (re.++ (re.union (str.to.re "E") (str.to.re "e")) (re.++ (re.opt (re.union (str.to.re "-") (str.to.re "+"))) (re.++ (re.opt (re.range "0" "2")) ((_ re.loop 1 2) (re.range "0" "9"))))))) (re.++ (re.opt (str.to.re "r")) (re.++ (re.union (str.to.re "-") (str.to.re "+")) (re.++ (re.opt ((_ re.capture 9) (re.++ ((_ re.capture 10) (re.union (re.++ (re.+ (re.range "0" "9")) (re.++ (re.opt (str.to.re ".")) (re.* (re.range "0" "9")))) (re.++ (re.* (re.range "0" "9")) (re.++ (re.opt (str.to.re ".")) (re.+ (re.range "0" "9")))))) (re.opt ((_ re.capture 11) (re.++ (re.union (str.to.re "E") (str.to.re "e")) (re.++ (re.opt (re.union (str.to.re "-") (str.to.re "+"))) (re.++ (re.opt (re.range "0" "2")) ((_ re.loop 1 2) (re.range "0" "9")))))))))) (str.to.re "i")))))))))) re.end-anchor)) (re.++ re.all(re.+ (re.range "a" "z")) re.all) )))
;/[a-z]+/.test(match[1]) == false	
(check-sat)
(get-model)
(pop 1)
(push 1)
(assert (str.in.re var0 (re.* (re.range "\x01" "\xff"))))
(assert (str.in.re var0 (re.++ (re.++ re.begin-anchor ((_ re.capture 1) (re.union (re.union (re.++ (re.opt (re.union (str.to.re "-") (str.to.re "+"))) (re.++ ((_ re.capture 2) (re.union (re.++ (re.+ (re.range "0" "9")) (re.++ (re.opt (str.to.re ".")) (re.* (re.range "0" "9")))) (re.++ (re.* (re.range "0" "9")) (re.++ (re.opt (str.to.re ".")) (re.+ (re.range "0" "9")))))) (re.++ (re.opt ((_ re.capture 3) (re.++ (re.union (str.to.re "E") (str.to.re "e")) (re.++ (re.opt (re.union (str.to.re "-") (str.to.re "+"))) (re.++ (re.opt (re.range "0" "2")) ((_ re.loop 1 2) (re.range "0" "9"))))))) (re.opt (str.to.re "r"))))) (re.++ (re.opt (re.union (str.to.re "-") (str.to.re "+"))) (re.++ (re.opt ((_ re.capture 4) (re.++ ((_ re.capture 5) (re.union (re.++ (re.+ (re.range "0" "9")) (re.++ (re.opt (str.to.re ".")) (re.* (re.range "0" "9")))) (re.++ (re.* (re.range "0" "9")) (re.++ (re.opt (str.to.re ".")) (re.+ (re.range "0" "9")))))) (re.opt ((_ re.capture 6) (re.++ (re.union (str.to.re "E") (str.to.re "e")) (re.++ (re.opt (re.union (str.to.re "-") (str.to.re "+"))) (re.++ (re.opt (re.range "0" "2")) ((_ re.loop 1 2) (re.range "0" "9")))))))))) (str.to.re "i")))) (re.++ (re.opt (re.union (str.to.re "-") (str.to.re "+"))) (re.++ ((_ re.capture 7) (re.union (re.++ (re.+ (re.range "0" "9")) (re.++ (re.opt (str.to.re ".")) (re.* (re.range "0" "9")))) (re.++ (re.* (re.range "0" "9")) (re.++ (re.opt (str.to.re ".")) (re.+ (re.range "0" "9")))))) (re.++ (re.opt ((_ re.capture 8) (re.++ (re.union (str.to.re "E") (str.to.re "e")) (re.++ (re.opt (re.union (str.to.re "-") (str.to.re "+"))) (re.++ (re.opt (re.range "0" "2")) ((_ re.loop 1 2) (re.range "0" "9"))))))) (re.++ (re.opt (str.to.re "r")) (re.++ (re.union (str.to.re "-") (str.to.re "+")) (re.++ (re.opt ((_ re.capture 9) (re.++ ((_ re.capture 10) (re.union (re.++ (re.+ (re.range "0" "9")) (re.++ (re.opt (str.to.re ".")) (re.* (re.range "0" "9")))) (re.++ (re.* (re.range "0" "9")) (re.++ (re.opt (str.to.re ".")) (re.+ (re.range "0" "9")))))) (re.opt ((_ re.capture 11) (re.++ (re.union (str.to.re "E") (str.to.re "e")) (re.++ (re.opt (re.union (str.to.re "-") (str.to.re "+"))) (re.++ (re.opt (re.range "0" "2")) ((_ re.loop 1 2) (re.range "0" "9")))))))))) (str.to.re "i")))))))))) re.end-anchor)))	; match!==null
(assert (str.in.re ((_ str.extract 1) var0 (re.++ (re.++ re.begin-anchor ((_ re.capture 1) (re.union (re.union (re.++ (re.opt (re.union (str.to.re "-") (str.to.re "+"))) (re.++ ((_ re.capture 2) (re.union (re.++ (re.+ (re.range "0" "9")) (re.++ (re.opt (str.to.re ".")) (re.* (re.range "0" "9")))) (re.++ (re.* (re.range "0" "9")) (re.++ (re.opt (str.to.re ".")) (re.+ (re.range "0" "9")))))) (re.++ (re.opt ((_ re.capture 3) (re.++ (re.union (str.to.re "E") (str.to.re "e")) (re.++ (re.opt (re.union (str.to.re "-") (str.to.re "+"))) (re.++ (re.opt (re.range "0" "2")) ((_ re.loop 1 2) (re.range "0" "9"))))))) (re.opt (str.to.re "r"))))) (re.++ (re.opt (re.union (str.to.re "-") (str.to.re "+"))) (re.++ (re.opt ((_ re.capture 4) (re.++ ((_ re.capture 5) (re.union (re.++ (re.+ (re.range "0" "9")) (re.++ (re.opt (str.to.re ".")) (re.* (re.range "0" "9")))) (re.++ (re.* (re.range "0" "9")) (re.++ (re.opt (str.to.re ".")) (re.+ (re.range "0" "9")))))) (re.opt ((_ re.capture 6) (re.++ (re.union (str.to.re "E") (str.to.re "e")) (re.++ (re.opt (re.union (str.to.re "-") (str.to.re "+"))) (re.++ (re.opt (re.range "0" "2")) ((_ re.loop 1 2) (re.range "0" "9")))))))))) (str.to.re "i")))) (re.++ (re.opt (re.union (str.to.re "-") (str.to.re "+"))) (re.++ ((_ re.capture 7) (re.union (re.++ (re.+ (re.range "0" "9")) (re.++ (re.opt (str.to.re ".")) (re.* (re.range "0" "9")))) (re.++ (re.* (re.range "0" "9")) (re.++ (re.opt (str.to.re ".")) (re.+ (re.range "0" "9")))))) (re.++ (re.opt ((_ re.capture 8) (re.++ (re.union (str.to.re "E") (str.to.re "e")) (re.++ (re.opt (re.union (str.to.re "-") (str.to.re "+"))) (re.++ (re.opt (re.range "0" "2")) ((_ re.loop 1 2) (re.range "0" "9"))))))) (re.++ (re.opt (str.to.re "r")) (re.++ (re.union (str.to.re "-") (str.to.re "+")) (re.++ (re.opt ((_ re.capture 9) (re.++ ((_ re.capture 10) (re.union (re.++ (re.+ (re.range "0" "9")) (re.++ (re.opt (str.to.re ".")) (re.* (re.range "0" "9")))) (re.++ (re.* (re.range "0" "9")) (re.++ (re.opt (str.to.re ".")) (re.+ (re.range "0" "9")))))) (re.opt ((_ re.capture 11) (re.++ (re.union (str.to.re "E") (str.to.re "e")) (re.++ (re.opt (re.union (str.to.re "-") (str.to.re "+"))) (re.++ (re.opt (re.range "0" "2")) ((_ re.loop 1 2) (re.range "0" "9")))))))))) (str.to.re "i")))))))))) re.end-anchor)) (str.to.re "\x00")))
;match[1]==null
(check-sat)
(get-model)
(pop 1)
(push 1)
(assert (str.in.re var0 (re.* (re.range "\x01" "\xff"))))
(assert (not (str.in.re var0 (re.++ (re.++ re.begin-anchor ((_ re.capture 1) (re.union (re.union (re.++ (re.opt (re.union (str.to.re "-") (str.to.re "+"))) (re.++ ((_ re.capture 2) (re.union (re.++ (re.+ (re.range "0" "9")) (re.++ (re.opt (str.to.re ".")) (re.* (re.range "0" "9")))) (re.++ (re.* (re.range "0" "9")) (re.++ (re.opt (str.to.re ".")) (re.+ (re.range "0" "9")))))) (re.++ (re.opt ((_ re.capture 3) (re.++ (re.union (str.to.re "E") (str.to.re "e")) (re.++ (re.opt (re.union (str.to.re "-") (str.to.re "+"))) (re.++ (re.opt (re.range "0" "2")) ((_ re.loop 1 2) (re.range "0" "9"))))))) (re.opt (str.to.re "r"))))) (re.++ (re.opt (re.union (str.to.re "-") (str.to.re "+"))) (re.++ (re.opt ((_ re.capture 4) (re.++ ((_ re.capture 5) (re.union (re.++ (re.+ (re.range "0" "9")) (re.++ (re.opt (str.to.re ".")) (re.* (re.range "0" "9")))) (re.++ (re.* (re.range "0" "9")) (re.++ (re.opt (str.to.re ".")) (re.+ (re.range "0" "9")))))) (re.opt ((_ re.capture 6) (re.++ (re.union (str.to.re "E") (str.to.re "e")) (re.++ (re.opt (re.union (str.to.re "-") (str.to.re "+"))) (re.++ (re.opt (re.range "0" "2")) ((_ re.loop 1 2) (re.range "0" "9")))))))))) (str.to.re "i")))) (re.++ (re.opt (re.union (str.to.re "-") (str.to.re "+"))) (re.++ ((_ re.capture 7) (re.union (re.++ (re.+ (re.range "0" "9")) (re.++ (re.opt (str.to.re ".")) (re.* (re.range "0" "9")))) (re.++ (re.* (re.range "0" "9")) (re.++ (re.opt (str.to.re ".")) (re.+ (re.range "0" "9")))))) (re.++ (re.opt ((_ re.capture 8) (re.++ (re.union (str.to.re "E") (str.to.re "e")) (re.++ (re.opt (re.union (str.to.re "-") (str.to.re "+"))) (re.++ (re.opt (re.range "0" "2")) ((_ re.loop 1 2) (re.range "0" "9"))))))) (re.++ (re.opt (str.to.re "r")) (re.++ (re.union (str.to.re "-") (str.to.re "+")) (re.++ (re.opt ((_ re.capture 9) (re.++ ((_ re.capture 10) (re.union (re.++ (re.+ (re.range "0" "9")) (re.++ (re.opt (str.to.re ".")) (re.* (re.range "0" "9")))) (re.++ (re.* (re.range "0" "9")) (re.++ (re.opt (str.to.re ".")) (re.+ (re.range "0" "9")))))) (re.opt ((_ re.capture 11) (re.++ (re.union (str.to.re "E") (str.to.re "e")) (re.++ (re.opt (re.union (str.to.re "-") (str.to.re "+"))) (re.++ (re.opt (re.range "0" "2")) ((_ re.loop 1 2) (re.range "0" "9")))))))))) (str.to.re "i")))))))))) re.end-anchor))))	; match == null
(check-sat)
(get-model)
(pop 1)
(exit)
